68 38 
82 77 
33 52 
37 43 
21 44 
82 44 
16 50 
65 41 
85 68 
28 1 
50 29 
23 63 
16 54 
90 15 
15 26 
99 84 
16 33 
13 1 
85 2 
44 59 
99 79 
55 15 
29 20 
56 66 
40 36 
20 91 
66 43 
6 34 
50 96 
49 65 
22 1 
1 90 
34 15 
91 72 
17 36 
31 16 
15 38 
83 96 
59 91 
62 99 
28 34 
42 94 
78 49 
28 80 
97 29 
97 20 
30 99 
62 17 
66 54 
41 83 
